NAME          ClpDefau  FREE
ROWS
 N  OBJROW
 L  ZMUNI1_PCT
 L  ZMUNI2_PCT
 L  ZMUNI3_PCT
 L  ZMUNI4_PCT
 L  ZMUNI5_PCT
 L  ZMUNI6_PCT
 L  ZMUNI7_PCT
 L  ZMUNI8_PCT
 L  ZMUNI9_PCT
COLUMNS
    QMUNI1 OBJROW 1.          
    QMUNI1 ZMUNI1_PCT 29612.7319  
    QMUNI1 ZMUNI2_PCT 1758.3847   
    QMUNI1 ZMUNI3_PCT 4217.1478   
    QMUNI1 ZMUNI4_PCT 3189.087    
    QMUNI1 ZMUNI5_PCT 291.2521    
    QMUNI1 ZMUNI6_PCT 455.2841    
    QMUNI1 ZMUNI7_PCT 2080.1544   
    QMUNI1 ZMUNI8_PCT 1571.6553   
    QMUNI1 ZMUNI9_PCT 554.8477    
    QMUNI2 OBJROW 1.          
    QMUNI2 ZMUNI1_PCT 1524.1623   
    QMUNI2 ZMUNI2_PCT 35417.1753  
    QMUNI2 ZMUNI3_PCT 2360.7254   
    QMUNI2 ZMUNI4_PCT 2631.3782   
    QMUNI2 ZMUNI5_PCT  -213.6231  
    QMUNI2 ZMUNI6_PCT  -115.2039  
    QMUNI2 ZMUNI7_PCT 905.9906    
    QMUNI2 ZMUNI8_PCT 1196.2891   
    QMUNI2 ZMUNI9_PCT 1268.1961   
    QMUNI3 OBJROW 1.          
    QMUNI3 ZMUNI1_PCT 4351.2344   
    QMUNI3 ZMUNI2_PCT 2935.7911   
    QMUNI3 ZMUNI3_PCT 31350.5173  
    QMUNI3 ZMUNI4_PCT 5483.2459   
    QMUNI3 ZMUNI5_PCT 193.0236    
    QMUNI3 ZMUNI6_PCT 347.1374    
    QMUNI3 ZMUNI7_PCT 2219.3908   
    QMUNI3 ZMUNI8_PCT 2145.7672   
    QMUNI3 ZMUNI9_PCT 1689.7201   
    QMUNI4 OBJROW 1.          
    QMUNI4 ZMUNI1_PCT 3331.7566   
    QMUNI4 ZMUNI2_PCT 3173.6374   
    QMUNI4 ZMUNI3_PCT 5541.42     
    QMUNI4 ZMUNI4_PCT 115263.3667 
    QMUNI4 ZMUNI5_PCT 273.323     
    QMUNI4 ZMUNI6_PCT 332.6416    
    QMUNI4 ZMUNI7_PCT 1566.6961   
    QMUNI4 ZMUNI8_PCT 1523.9716   
    QMUNI4 ZMUNI9_PCT 1145.3628   
    QMUNI5 OBJROW 1.          
    QMUNI5 ZMUNI1_PCT 441.5512    
    QMUNI5 ZMUNI2_PCT 370.2164    
    QMUNI5 ZMUNI3_PCT 396.9192    
    QMUNI5 ZMUNI4_PCT 353.4317    
    QMUNI5 ZMUNI5_PCT 38185.5011  
    QMUNI5 ZMUNI6_PCT 3120.9945   
    QMUNI5 ZMUNI7_PCT 795.7458    
    QMUNI5 ZMUNI8_PCT 664.5203    
    QMUNI5 ZMUNI9_PCT 721.1685    
    QMUNI6 OBJROW 1.          
    QMUNI6 ZMUNI1_PCT 371.3608    
    QMUNI6 ZMUNI2_PCT 260.9253    
    QMUNI6 ZMUNI3_PCT 307.2739    
    QMUNI6 ZMUNI4_PCT 251.9608    
    QMUNI6 ZMUNI5_PCT 3094.1009   
    QMUNI6 ZMUNI6_PCT 33932.4951  
    QMUNI6 ZMUNI7_PCT 772.0947    
    QMUNI6 ZMUNI8_PCT 528.3356    
    QMUNI6 ZMUNI9_PCT 488.472     
    QMUNI7 OBJROW 1.          
    QMUNI7 ZMUNI1_PCT 1518.8217   
    QMUNI7 ZMUNI2_PCT 927.1622    
    QMUNI7 ZMUNI3_PCT 1334.1904   
    QMUNI7 ZMUNI4_PCT 1051.3306   
    QMUNI7 ZMUNI5_PCT 453.5675    
    QMUNI7 ZMUNI6_PCT 638.0081    
    QMUNI7 ZMUNI7_PCT 34605.0262  
    QMUNI7 ZMUNI8_PCT 2840.4236   
    QMUNI7 ZMUNI9_PCT 1081.8481   
    QMUNI8 OBJROW 1.          
    QMUNI8 ZMUNI1_PCT 927.9251    
    QMUNI8 ZMUNI2_PCT 831.4133    
    QMUNI8 ZMUNI3_PCT 957.2983    
    QMUNI8 ZMUNI4_PCT 764.2746    
    QMUNI8 ZMUNI5_PCT  -209.6177  
    QMUNI8 ZMUNI6_PCT  -114.8224  
    QMUNI8 ZMUNI7_PCT 2201.8432   
    QMUNI8 ZMUNI8_PCT 30620.575   
    QMUNI8 ZMUNI9_PCT 999.4507    
    QMUNI9 OBJROW 1.          
    QMUNI9 ZMUNI1_PCT 539.9704    
    QMUNI9 ZMUNI2_PCT 942.2303    
    QMUNI9 ZMUNI3_PCT 640.2969    
    QMUNI9 ZMUNI4_PCT 581.9321    
    QMUNI9 ZMUNI5_PCT 180.2444    
    QMUNI9 ZMUNI6_PCT 190.9256    
    QMUNI9 ZMUNI7_PCT 931.1676    
    QMUNI9 ZMUNI8_PCT 1513.6719   
    QMUNI9 ZMUNI9_PCT 31186.8667  
RHS
    RHS ZMUNI1_PCT  -1.52698828
    RHS ZMUNI2_PCT 0.1394196878
    RHS ZMUNI3_PCT  -0.38127101
    RHS ZMUNI4_PCT 6.5079706239
    RHS ZMUNI5_PCT 1.1013057805
    RHS ZMUNI6_PCT  -0.63256962
    RHS ZMUNI7_PCT 1.1830665147
    RHS ZMUNI8_PCT 1.2949655899
    RHS ZMUNI9_PCT 3.07018867  
BOUNDS
 LO BOUND QMUNI1 -0.000705142
 UP BOUND QMUNI1      1.1e+10
 LO BOUND QMUNI2 -0.000466752
 UP BOUND QMUNI2      1.1e+10
 LO BOUND QMUNI3 -0.000550117
 UP BOUND QMUNI3      1.1e+10
 LO BOUND QMUNI4 -0.000149595
 UP BOUND QMUNI4      1.1e+10
 LO BOUND QMUNI5 -0.000307252
 UP BOUND QMUNI5      1.1e+10
 LO BOUND QMUNI6 -0.00049243 
 UP BOUND QMUNI6      1.1e+10
 LO BOUND QMUNI7 -0.00013286 
 UP BOUND QMUNI7      1.1e+10
 LO BOUND QMUNI8 -0.000243328
 UP BOUND QMUNI8      1.1e+10
 LO BOUND QMUNI9 -0.00019935 
 UP BOUND QMUNI9      1.1e+10
ENDATA
